0 0 0 0
0 1 0 0
0 2 2 0
0 3 0 0
0 4 0 3
0 5 0 4
0 6 0 4
0 7 0 7
0 8 0 4
0 9 0 5
0 10 0 6
0 11 1 5
0 12 1 7
0 13 0 3
0 14 0 7
0 15 0 7
0 16 1 11
0 17 0 7
0 18 0 7
0 19 0 9
0 20 0 11
0 21 0 17
0 22 0 11
0 23 0 11
0 24 0 17
0 25 2 15
0 26 0 20
0 27 0 13
0 28 0 20
0 29 0 23
0 30 0 14
0 31 0 25
